Maximize
  5 x_palladium_heavy_catalyst + 4 x_platinum_heavy_catalyst
Subject To
  c1: 14 x_platinum_heavy_catalyst + 25 x_palladium_heavy_catalyst <= 390
  c2: 15 x_palladium_heavy_catalyst + 20 x_platinum_heavy_catalyst <= 450
End